c Random generated cnf formula, satisfiable: false
p cnf 10 50
-2 -1 -6 0
6 -8 3 0
-10 2 6 0
4 -9 8 0
-7 -6 3 0
-3 -4 8 0
-2 9 -4 0
9 -3 10 0
10 -4 1 0
-3 -5 -1 0
-1 -8 7 0
-10 9 1 0
-10 -8 -3 0
5 10 -3 0
-8 -5 -3 0
1 -10 8 0
8 -3 10 0
10 2 1 0
7 10 9 0
9 5 -10 0
-1 4 -10 0
3 9 10 0
-5 -8 -10 0
-4 -7 -2 0
3 -1 9 0
4 -10 -2 0
9 -1 -8 0
7 5 -3 0
-6 -8 -5 0
7 -8 3 0
4 -8 3 0
3 -4 -6 0
10 6 8 0
-7 -5 1 0
-8 1 2 0
-6 9 2 0
-4 -10 9 0
-1 -6 10 0
5 8 -4 0
10 1 -8 0
4 1 -2 0
-4 5 -8 0
-7 9 -6 0
-10 -2 7 0
2 1 9 0
7 6 4 0
1 -10 -9 0
2 -6 10 0
1 7 -5 0
-3 2 1 0
